Welcome to the CBC MILP Solver 
Version: Trunk
Build Date: Apr 16 2020 

Starting solution of the Linear programming relaxation problem using Primal Simplex

Using Python-MIP package version 1.8.1
Machines:  3 Jobs:  3
Order: 
Job  0 : machine 1 ( 7 ) machine 2 ( 7 ) machine 0 ( 1 ) 
Job  1 : machine 1 ( 4 ) machine 0 ( 3 ) machine 2 ( 7 ) 
Job  2 : machine 1 ( 7 ) machine 2 ( 6 ) machine 0 ( 2 ) 
K:  33
Job  0 , e: machine  0 ( 14 ) machine  1 ( 0 ) machine  2 ( 7 ) 
Job  1 , e: machine  0 ( 4 ) machine  1 ( 0 ) machine  2 ( 7 ) 
Job  2 , e: machine  0 ( 13 ) machine  1 ( 0 ) machine  2 ( 7 ) 
Job  0 , f: machine  0 ( 0 ) machine  1 ( 8 ) machine  2 ( 1 ) 
Job  1 , f: machine  0 ( 7 ) machine  1 ( 10 ) machine  2 ( 0 ) 
Job  2 , f: machine  0 ( 0 ) machine  1 ( 8 ) machine  2 ( 2 ) 
EST and LST:
Job: 0 Machine: 0 EST: 14 LST: 32
Job: 0 Machine: 1 EST: 0 LST: 18
Job: 0 Machine: 2 EST: 7 LST: 25
Job: 1 Machine: 0 EST: 4 LST: 23
Job: 1 Machine: 1 EST: 0 LST: 19
Job: 1 Machine: 2 EST: 7 LST: 26
Job: 2 Machine: 0 EST: 13 LST: 31
Job: 2 Machine: 1 EST: 0 LST: 18
Job: 2 Machine: 2 EST: 7 LST: 25
Order:
Job: 0 Machine: 0 = 2 
Job: 0 Machine: 1 = 0 
Job: 0 Machine: 2 = 1 
Job: 1 Machine: 0 = 1 
Job: 1 Machine: 1 = 0 
Job: 1 Machine: 2 = 2 
Job: 2 Machine: 0 = 2 
Job: 2 Machine: 1 = 0 
Job: 2 Machine: 2 = 1 
Distances:
Job 0, Machine 1 -> Machine 2: distance 7
Job 0, Machine 1 -> Machine 0: distance 14
Job 0, Machine 2 -> Machine 0: distance 7
Job 1, Machine 1 -> Machine 0: distance 4
Job 1, Machine 1 -> Machine 2: distance 7
Job 1, Machine 0 -> Machine 2: distance 3
Job 2, Machine 1 -> Machine 2: distance 7
Job 2, Machine 1 -> Machine 0: distance 13
Job 2, Machine 2 -> Machine 0: distance 6
McCormic linearization
[(0, 1), (1, 2), (0, 0), (0, 2), (2, 1), (2, 0), (2, 2), (1, 0), (1, 1)]
obj:  0.0
solutions:  1
+ 0.14285714285714285x(0,1) + 0.14285714285714285x(2,1) 
C:  18.5
x(0,0) = 17.50	 x(0,1) = 3.50	 x(0,2) = 10.50	 
x(1,0) = 8.50	 x(1,1) = 4.50	 x(1,2) = 11.50	 
x(2,0) = 16.50	 x(2,1) = 3.50	 x(2,2) = 10.50	 
y(0,1,0) = 0.00	 y(1,0,0) = 1.00	 
y(0,2,0) = 0.90	 y(2,0,0) = 0.10	 
y(1,2,0) = 0.59	 y(2,1,0) = 0.41	 
y(0,1,1) = 0.22	 y(1,0,1) = 0.78	 
y(0,2,1) = 0.50	 y(2,0,1) = 0.50	 
y(1,2,1) = 0.36	 y(2,1,1) = 0.64	 
y(0,1,2) = 0.50	 y(1,0,2) = 0.50	 
y(0,2,2) = 0.42	 y(2,0,2) = 0.58	 
y(1,2,2) = 0.50	 y(2,1,2) = 0.50	 
obj:  0.638095238095238
solutions:  1
+ 0.06666666666666667x(0,1) + 0.06666666666666667x(2,1) + 0.0380952380952381x(1,1) 
[(0, 1), (1, 2), (0, 0), (2, 1), (2, 0), (1, 1), (2, 2), (1, 0), (0, 2)]
cliques:  1 mip: 20
C:  20.983660130718956
x(0,0) = 19.87	 x(0,1) = 5.87	 x(0,2) = 12.87	 
x(1,0) = 9.51	 x(1,1) = 5.51	 x(1,2) = 12.51	 
x(2,0) = 18.98	 x(2,1) = 5.98	 x(2,2) = 12.98	 
y(0,1,0) = 0.00	 y(1,0,0) = 1.00	 
y(0,2,0) = 0.06	 y(2,0,0) = 0.94	 
y(1,2,0) = 0.62	 y(2,1,0) = 0.38	 
y(0,1,1) = 0.71	 y(1,0,1) = 0.29	 
y(0,2,1) = 0.31	 y(2,0,1) = 0.69	 
y(1,2,1) = 0.30	 y(2,1,1) = 0.70	 
y(0,1,2) = 0.31	 y(1,0,2) = 0.69	 
y(0,2,2) = 0.25	 y(2,0,2) = 0.75	 
y(1,2,2) = 0.71	 y(2,1,2) = 0.29	 
obj:  0.9361009361009363
solutions:  1
+ 0.025641025641025657x(1,2) + 0.021978021978021983x(2,2) + 0.02564102564102563x(0,2) 
[(1, 2), (0, 1), (0, 0), (2, 1), (2, 0), (1, 1), (2, 2), (1, 0), (0, 2)]
cliques:  1 mip: 51
C:  22.463941299790353
x(0,0) = 21.46	 x(0,1) = 7.46	 x(0,2) = 14.46	 
x(1,0) = 10.82	 x(1,1) = 3.56	 x(1,2) = 13.82	 
x(2,0) = 18.50	 x(2,1) = 5.50	 x(2,2) = 12.50	 
y(0,1,0) = 0.00	 y(1,0,0) = 1.00	 
y(0,2,0) = 0.00	 y(2,0,0) = 1.00	 
y(1,2,0) = 0.80	 y(2,1,0) = 0.20	 
y(0,1,1) = 0.02	 y(1,0,1) = 0.98	 
y(0,2,1) = 0.20	 y(2,0,1) = 0.80	 
y(1,2,1) = 0.74	 y(2,1,1) = 0.26	 
y(0,1,2) = 0.24	 y(1,0,2) = 0.76	 
y(0,2,2) = 0.64	 y(2,0,2) = 0.36	 
y(1,2,2) = 0.68	 y(2,1,2) = 0.32	 
obj:  0.9999999999999998
erro
[(1, 2), (0, 1), (0, 0), (0, 2), (2, 1), (2, 0), (2, 2), (1, 0), (1, 1)]
cliques:  0 mip: 48
C:  23.713346775059648
x(0,0) = 22.71	 x(0,1) = 6.34	 x(0,2) = 13.34	 
x(1,0) = 13.71	 x(1,1) = 6.94	 x(1,2) = 16.71	 
x(2,0) = 18.10	 x(2,1) = 4.70	 x(2,2) = 12.10	 
y(0,1,0) = 0.00	 y(1,0,0) = 1.00	 
y(0,2,0) = 0.00	 y(2,0,0) = 1.00	 
y(1,2,0) = 0.98	 y(2,1,0) = 0.02	 
y(0,1,1) = 0.45	 y(1,0,1) = 0.55	 
y(0,2,1) = 0.46	 y(2,0,1) = 0.54	 
y(1,2,1) = 0.51	 y(2,1,1) = 0.49	 
y(0,1,2) = 0.86	 y(1,0,2) = 0.14	 
y(0,2,2) = 0.34	 y(2,0,2) = 0.66	 
y(1,2,2) = 0.06	 y(2,1,2) = 0.94	 
obj:  0.9999999999999993
erro
[(0, 1), (1, 2), (0, 0), (2, 1), (2, 0), (1, 1), (2, 2), (1, 0), (0, 2)]
cliques:  0 mip: 49
C:  24.0
x(0,0) = 23.00	 x(0,1) = 3.28	 x(0,2) = 10.28	 
x(1,0) = 14.00	 x(1,1) = 9.86	 x(1,2) = 17.00	 
x(2,0) = 21.00	 x(2,1) = 6.49	 x(2,2) = 15.00	 
y(0,1,0) = 0.00	 y(1,0,0) = 1.00	 
y(0,2,0) = 0.00	 y(2,0,0) = 1.00	 
y(1,2,0) = 0.91	 y(2,1,0) = 0.09	 
y(0,1,1) = 0.97	 y(1,0,1) = 0.03	 
y(0,2,1) = 0.57	 y(2,0,1) = 0.43	 
y(1,2,1) = 0.61	 y(2,1,1) = 0.39	 
y(0,1,2) = 0.99	 y(1,0,2) = 0.01	 
y(0,2,2) = 0.82	 y(2,0,2) = 0.18	 
y(1,2,2) = 0.18	 y(2,1,2) = 0.82	 
obj:  1.0265990663393472
erro
[(0, 1), (1, 2), (0, 0), (2, 1), (2, 0), (1, 1), (2, 2), (1, 0), (0, 2)]
cliques:  0 mip: 28
C:  24.081431760842538
x(0,0) = 19.89	 x(0,1) = 5.37	 x(0,2) = 12.89	 
x(1,0) = 14.08	 x(1,1) = 8.41	 x(1,2) = 17.08	 
x(2,0) = 19.10	 x(2,1) = 6.10	 x(2,2) = 13.10	 
y(0,1,0) = 0.00	 y(1,0,0) = 1.00	 
y(0,2,0) = 0.91	 y(2,0,0) = 0.09	 
y(1,2,0) = 0.97	 y(2,1,0) = 0.03	 
y(0,1,1) = 0.66	 y(1,0,1) = 0.34	 
y(0,2,1) = 0.62	 y(2,0,1) = 0.38	 
y(1,2,1) = 0.73	 y(2,1,1) = 0.27	 
y(0,1,2) = 0.89	 y(1,0,2) = 0.11	 
y(0,2,2) = 0.46	 y(2,0,2) = 0.54	 
y(1,2,2) = 0.08	 y(2,1,2) = 0.92	 
obj:  1.0565003692883352
erro
[(0, 1), (1, 2), (0, 0), (0, 2), (2, 1), (2, 0), (2, 2), (1, 0), (1, 1)]
cliques:  0 mip: 53
C:  25.000000000000004
x(0,0) = 22.00	 x(0,1) = 8.00	 x(0,2) = 15.00	 
x(1,0) = 15.00	 x(1,1) = 2.62	 x(1,2) = 18.00	 
x(2,0) = 23.00	 x(2,1) = 5.50	 x(2,2) = 12.50	 
y(0,1,0) = 0.00	 y(1,0,0) = 1.00	 
y(0,2,0) = 1.00	 y(2,0,0) = 0.00	 
y(1,2,0) = 0.79	 y(2,1,0) = 0.21	 
y(0,1,1) = 0.32	 y(1,0,1) = 0.68	 
y(0,2,1) = 0.39	 y(2,0,1) = 0.61	 
y(1,2,1) = 0.95	 y(2,1,1) = 0.05	 
y(0,1,2) = 0.48	 y(1,0,2) = 0.52	 
y(0,2,2) = 0.29	 y(2,0,2) = 0.71	 
y(1,2,2) = 0.02	 y(2,1,2) = 0.98	 
obj:  1.0
erro
[(1, 2), (0, 1), (0, 0), (0, 2), (2, 1), (2, 0), (2, 2), (1, 0), (1, 1)]
cliques:  0 mip: 26
C:  25.0
x(0,0) = 23.30	 x(0,1) = 7.56	 x(0,2) = 14.56	 
x(1,0) = 15.00	 x(1,1) = 5.19	 x(1,2) = 18.00	 
x(2,0) = 22.35	 x(2,1) = 4.47	 x(2,2) = 13.09	 
y(0,1,0) = 0.00	 y(1,0,0) = 1.00	 
y(0,2,0) = 0.35	 y(2,0,0) = 0.65	 
y(1,2,0) = 0.82	 y(2,1,0) = 0.18	 
y(0,1,1) = 0.41	 y(1,0,1) = 0.59	 
y(0,2,1) = 0.16	 y(2,0,1) = 0.84	 
y(1,2,1) = 0.79	 y(2,1,1) = 0.21	 
y(0,1,2) = 0.86	 y(1,0,2) = 0.14	 
y(0,2,2) = 0.35	 y(2,0,2) = 0.65	 
y(1,2,2) = 0.38	 y(2,1,2) = 0.62	 
obj:  1.0000000000000002
erro
[(0, 1), (1, 2), (0, 0), (2, 1), (2, 0), (1, 1), (2, 2), (1, 0), (0, 2)]
cliques:  0 mip: 41
C:  25.0
x(0,0) = 22.75	 x(0,1) = 5.90	 x(0,2) = 12.90	 
x(1,0) = 15.00	 x(1,1) = 9.55	 x(1,2) = 18.00	 
x(2,0) = 20.93	 x(2,1) = 3.64	 x(2,2) = 10.64	 
y(0,1,0) = 0.00	 y(1,0,0) = 1.00	 
y(0,2,0) = 0.63	 y(2,0,0) = 0.37	 
y(1,2,0) = 0.88	 y(2,1,0) = 0.12	 
y(0,1,1) = 0.72	 y(1,0,1) = 0.28	 
y(0,2,1) = 0.33	 y(2,0,1) = 0.67	 
y(1,2,1) = 0.57	 y(2,1,1) = 0.43	 
y(0,1,2) = 0.92	 y(1,0,2) = 0.08	 
y(0,2,2) = 0.16	 y(2,0,2) = 0.84	 
y(1,2,2) = 0.00	 y(2,1,2) = 1.00	 
obj:  1.0
erro
[(0, 1), (1, 2), (0, 0), (0, 2), (2, 1), (2, 0), (2, 2), (1, 0), (1, 1)]
cliques:  0 mip: 39
C:  25.0
x(0,0) = 22.99	 x(0,1) = 6.27	 x(0,2) = 13.27	 
x(1,0) = 15.00	 x(1,1) = 9.16	 x(1,2) = 18.00	 
x(2,0) = 22.07	 x(2,1) = 3.49	 x(2,2) = 12.00	 
y(0,1,0) = 0.00	 y(1,0,0) = 1.00	 
y(0,2,0) = 0.51	 y(2,0,0) = 0.49	 
y(1,2,0) = 0.58	 y(2,1,0) = 0.42	 
y(0,1,1) = 0.63	 y(1,0,1) = 0.37	 
y(0,2,1) = 0.27	 y(2,0,1) = 0.73	 
y(1,2,1) = 0.44	 y(2,1,1) = 0.56	 
y(0,1,2) = 0.77	 y(1,0,2) = 0.23	 
y(0,2,2) = 0.46	 y(2,0,2) = 0.54	 
y(1,2,2) = 0.00	 y(2,1,2) = 1.00	 
obj:  1.0
erro
[(0, 1), (1, 2), (0, 0), (0, 2), (2, 1), (2, 0), (2, 2), (1, 0), (1, 1)]
cliques:  0 mip: 38
C:  25.000000000000004
x(0,0) = 23.27	 x(0,1) = 6.80	 x(0,2) = 13.80	 
x(1,0) = 15.00	 x(1,1) = 7.55	 x(1,2) = 18.00	 
x(2,0) = 22.20	 x(2,1) = 3.88	 x(2,2) = 11.02	 
y(0,1,0) = 0.00	 y(1,0,0) = 1.00	 
y(0,2,0) = 0.37	 y(2,0,0) = 0.63	 
y(1,2,0) = 0.55	 y(2,1,0) = 0.45	 
y(0,1,1) = 0.31	 y(1,0,1) = 0.69	 
y(0,2,1) = 0.32	 y(2,0,1) = 0.68	 
y(1,2,1) = 0.64	 y(2,1,1) = 0.36	 
y(0,1,2) = 0.80	 y(1,0,2) = 0.20	 
y(0,2,2) = 0.31	 y(2,0,2) = 0.69	 
y(1,2,2) = 0.03	 y(2,1,2) = 0.97	 
obj:  1.0
erro
[(0, 1), (1, 2), (0, 0), (0, 2), (2, 1), (2, 0), (2, 2), (1, 0), (1, 1)]
cliques:  0 mip: 43
C:  25.0
x(0,0) = 23.30	 x(0,1) = 7.16	 x(0,2) = 14.57	 
x(1,0) = 15.00	 x(1,1) = 6.79	 x(1,2) = 18.00	 
x(2,0) = 21.41	 x(2,1) = 3.96	 x(2,2) = 11.15	 
y(0,1,0) = 0.00	 y(1,0,0) = 1.00	 
y(0,2,0) = 0.35	 y(2,0,0) = 0.65	 
y(1,2,0) = 0.74	 y(2,1,0) = 0.26	 
y(0,1,1) = 0.16	 y(1,0,1) = 0.84	 
y(0,2,1) = 0.33	 y(2,0,1) = 0.67	 
y(1,2,1) = 0.70	 y(2,1,1) = 0.30	 
y(0,1,2) = 0.85	 y(1,0,2) = 0.15	 
y(0,2,2) = 0.35	 y(2,0,2) = 0.65	 
y(1,2,2) = 0.01	 y(2,1,2) = 0.99	 
obj:  1.0
erro
[(0, 1), (1, 2), (0, 0), (2, 1), (2, 0), (1, 1), (2, 2), (1, 0), (0, 2)]
cliques:  0 mip: 45
C:  25.0
x(0,0) = 23.18	 x(0,1) = 6.96	 x(0,2) = 13.96	 
x(1,0) = 15.00	 x(1,1) = 7.62	 x(1,2) = 18.00	 
x(2,0) = 22.41	 x(2,1) = 3.68	 x(2,2) = 10.68	 
y(0,1,0) = 0.00	 y(1,0,0) = 1.00	 
y(0,2,0) = 0.41	 y(2,0,0) = 0.59	 
y(1,2,0) = 0.49	 y(2,1,0) = 0.51	 
y(0,1,1) = 0.32	 y(1,0,1) = 0.68	 
y(0,2,1) = 0.19	 y(2,0,1) = 0.81	 
y(1,2,1) = 0.20	 y(2,1,1) = 0.80	 
y(0,1,2) = 0.88	 y(1,0,2) = 0.12	 
y(0,2,2) = 0.27	 y(2,0,2) = 0.73	 
y(1,2,2) = 0.01	 y(2,1,2) = 0.99	 
obj:  0.9999999999999999
erro
[(0, 1), (1, 2), (0, 0), (0, 2), (2, 1), (2, 0), (2, 2), (1, 0), (1, 1)]
cliques:  0 mip: 44
C:  25.0
x(0,0) = 23.24	 x(0,1) = 6.20	 x(0,2) = 13.53	 
x(1,0) = 15.00	 x(1,1) = 8.56	 x(1,2) = 18.00	 
x(2,0) = 21.39	 x(2,1) = 3.91	 x(2,2) = 10.91	 
y(0,1,0) = 0.00	 y(1,0,0) = 1.00	 
y(0,2,0) = 0.38	 y(2,0,0) = 0.62	 
y(1,2,0) = 0.73	 y(2,1,0) = 0.27	 
y(0,1,1) = 0.55	 y(1,0,1) = 0.45	 
y(0,2,1) = 0.24	 y(2,0,1) = 0.76	 
y(1,2,1) = 0.27	 y(2,1,1) = 0.73	 
y(0,1,2) = 0.90	 y(1,0,2) = 0.10	 
y(0,2,2) = 0.43	 y(2,0,2) = 0.57	 
y(1,2,2) = 0.02	 y(2,1,2) = 0.98	 
obj:  1.0
erro
[(0, 1), (1, 2), (0, 0), (2, 1), (2, 0), (1, 1), (2, 2), (1, 0), (0, 2)]
cliques:  0 mip: 47
C:  25.0
x(0,0) = 22.73	 x(0,1) = 4.72	 x(0,2) = 11.72	 
x(1,0) = 15.00	 x(1,1) = 9.68	 x(1,2) = 18.00	 
x(2,0) = 22.63	 x(2,1) = 4.75	 x(2,2) = 11.75	 
y(0,1,0) = 0.00	 y(1,0,0) = 1.00	 
y(0,2,0) = 0.63	 y(2,0,0) = 0.37	 
y(1,2,0) = 0.67	 y(2,1,0) = 0.33	 
y(0,1,1) = 0.74	 y(1,0,1) = 0.26	 
y(0,2,1) = 0.36	 y(2,0,1) = 0.64	 
y(1,2,1) = 0.38	 y(2,1,1) = 0.62	 
y(0,1,2) = 0.94	 y(1,0,2) = 0.06	 
y(0,2,2) = 0.68	 y(2,0,2) = 0.32	 
y(1,2,2) = 0.05	 y(2,1,2) = 0.95	 
obj:  0.9999999999999993
erro
[(0, 1), (1, 2), (0, 0), (0, 2), (2, 1), (2, 0), (2, 2), (1, 0), (1, 1)]
cliques:  0 mip: 44
C:  25.0
x(0,0) = 22.89	 x(0,1) = 6.25	 x(0,2) = 13.25	 
x(1,0) = 15.00	 x(1,1) = 7.79	 x(1,2) = 18.00	 
x(2,0) = 22.55	 x(2,1) = 4.30	 x(2,2) = 11.30	 
y(0,1,0) = 0.00	 y(1,0,0) = 1.00	 
y(0,2,0) = 0.55	 y(2,0,0) = 0.45	 
y(1,2,0) = 0.33	 y(2,1,0) = 0.67	 
y(0,1,1) = 0.36	 y(1,0,1) = 0.64	 
y(0,2,1) = 0.24	 y(2,0,1) = 0.76	 
y(1,2,1) = 0.19	 y(2,1,1) = 0.81	 
y(0,1,2) = 0.91	 y(1,0,2) = 0.09	 
y(0,2,2) = 0.21	 y(2,0,2) = 0.79	 
y(1,2,2) = 0.01	 y(2,1,2) = 0.99	 
obj:  1.0
erro
[(0, 1), (1, 2), (0, 0), (0, 2), (2, 1), (2, 0), (2, 2), (1, 0), (1, 1)]
cliques:  0 mip: 43
C:  25.000000000000004
x(0,0) = 23.63	 x(0,1) = 6.94	 x(0,2) = 13.94	 
x(1,0) = 15.00	 x(1,1) = 7.02	 x(1,2) = 18.00	 
x(2,0) = 20.26	 x(2,1) = 4.05	 x(2,2) = 12.19	 
y(0,1,0) = 0.00	 y(1,0,0) = 1.00	 
y(0,2,0) = 0.19	 y(2,0,0) = 0.81	 
y(1,2,0) = 0.88	 y(2,1,0) = 0.12	 
y(0,1,1) = 0.41	 y(1,0,1) = 0.59	 
y(0,2,1) = 0.25	 y(2,0,1) = 0.75	 
y(1,2,1) = 0.37	 y(2,1,1) = 0.63	 
y(0,1,2) = 0.88	 y(1,0,2) = 0.12	 
y(0,2,2) = 0.44	 y(2,0,2) = 0.56	 
y(1,2,2) = 0.01	 y(2,1,2) = 0.99	 
obj:  1.0
erro
[(0, 1), (1, 2), (0, 0), (0, 2), (2, 1), (2, 0), (2, 2), (1, 0), (1, 1)]
cliques:  0 mip: 45
C:  25.000000000000004
x(0,0) = 23.67	 x(0,1) = 5.68	 x(0,2) = 14.21	 
x(1,0) = 15.00	 x(1,1) = 8.80	 x(1,2) = 18.00	 
x(2,0) = 20.39	 x(2,1) = 4.28	 x(2,2) = 11.78	 
y(0,1,0) = 0.00	 y(1,0,0) = 1.00	 
y(0,2,0) = 0.17	 y(2,0,0) = 0.83	 
y(1,2,0) = 0.88	 y(2,1,0) = 0.12	 
y(0,1,1) = 0.66	 y(1,0,1) = 0.34	 
y(0,2,1) = 0.27	 y(2,0,1) = 0.73	 
y(1,2,1) = 0.22	 y(2,1,1) = 0.78	 
y(0,1,2) = 0.87	 y(1,0,2) = 0.13	 
y(0,2,2) = 0.40	 y(2,0,2) = 0.60	 
y(1,2,2) = 0.00	 y(2,1,2) = 1.00	 
obj:  0.9999999999999999
erro
[(0, 1), (1, 2), (0, 0), (0, 2), (2, 1), (2, 0), (2, 2), (1, 0), (1, 1)]
cliques:  0 mip: 44
C:  25.000000000000004
x(0,0) = 24.00	 x(0,1) = 4.26	 x(0,2) = 12.58	 
x(1,0) = 15.00	 x(1,1) = 10.64	 x(1,2) = 18.00	 
x(2,0) = 22.00	 x(2,1) = 5.55	 x(2,2) = 12.55	 
y(0,1,0) = 0.00	 y(1,0,0) = 1.00	 
y(0,2,0) = 0.00	 y(2,0,0) = 1.00	 
y(1,2,0) = 0.89	 y(2,1,0) = 0.11	 
y(0,1,1) = 0.98	 y(1,0,1) = 0.02	 
y(0,2,1) = 0.45	 y(2,0,1) = 0.55	 
y(1,2,1) = 0.50	 y(2,1,1) = 0.50	 
y(0,1,2) = 0.94	 y(1,0,2) = 0.06	 
y(0,2,2) = 0.63	 y(2,0,2) = 0.37	 
y(1,2,2) = 0.03	 y(2,1,2) = 0.97	 
obj:  1.0596917773910322
erro
[(0, 1), (1, 2), (0, 0), (2, 1), (2, 0), (1, 1), (2, 2), (1, 0), (0, 2)]
cliques:  0 mip: 33
C:  25.000000000000004
x(0,0) = 22.93	 x(0,1) = 5.78	 x(0,2) = 12.78	 
x(1,0) = 13.54	 x(1,1) = 9.54	 x(1,2) = 18.00	 
x(2,0) = 22.53	 x(2,1) = 3.77	 x(2,2) = 12.46	 
y(0,1,0) = 0.00	 y(1,0,0) = 1.00	 
y(0,2,0) = 0.53	 y(2,0,0) = 0.47	 
y(1,2,0) = 0.63	 y(2,1,0) = 0.37	 
y(0,1,1) = 0.71	 y(1,0,1) = 0.29	 
y(0,2,1) = 0.35	 y(2,0,1) = 0.65	 
y(1,2,1) = 0.58	 y(2,1,1) = 0.42	 
y(0,1,2) = 0.93	 y(1,0,2) = 0.07	 
y(0,2,2) = 0.33	 y(2,0,2) = 0.67	 
y(1,2,2) = 0.02	 y(2,1,2) = 0.98	 
obj:  1.0000000000000002
erro
[(0, 1), (1, 2), (0, 0), (0, 2), (2, 1), (2, 0), (2, 2), (1, 0), (1, 1)]
cliques:  0 mip: 45
C:  25.000000000000004
x(0,0) = 23.78	 x(0,1) = 7.88	 x(0,2) = 14.88	 
x(1,0) = 11.08	 x(1,1) = 7.08	 x(1,2) = 18.00	 
x(2,0) = 20.23	 x(2,1) = 3.07	 x(2,2) = 10.14	 
y(0,1,0) = 0.00	 y(1,0,0) = 1.00	 
y(0,2,0) = 0.11	 y(2,0,0) = 0.89	 
y(1,2,0) = 0.82	 y(2,1,0) = 0.18	 
y(0,1,1) = 0.40	 y(1,0,1) = 0.60	 
y(0,2,1) = 0.13	 y(2,0,1) = 0.87	 
y(1,2,1) = 0.22	 y(2,1,1) = 0.78	 
y(0,1,2) = 0.84	 y(1,0,2) = 0.16	 
y(0,2,2) = 0.17	 y(2,0,2) = 0.83	 
y(1,2,2) = -0.00	 y(2,1,2) = 1.00	 
obj:  1.0
erro
[(0, 1), (1, 2), (0, 0), (0, 2), (2, 1), (2, 0), (2, 2), (1, 0), (1, 1)]
cliques:  0 mip: 46
C:  25.000000000000004
x(0,0) = 23.51	 x(0,1) = 5.40	 x(0,2) = 12.40	 
x(1,0) = 15.00	 x(1,1) = 9.88	 x(1,2) = 18.00	 
x(2,0) = 19.14	 x(2,1) = 3.95	 x(2,2) = 10.95	 
y(0,1,0) = 0.00	 y(1,0,0) = 1.00	 
y(0,2,0) = 0.25	 y(2,0,0) = 0.75	 
y(1,2,0) = 0.85	 y(2,1,0) = 0.15	 
y(0,1,1) = 0.78	 y(1,0,1) = 0.22	 
y(0,2,1) = 0.23	 y(2,0,1) = 0.77	 
y(1,2,1) = 0.08	 y(2,1,1) = 0.92	 
y(0,1,2) = 0.91	 y(1,0,2) = 0.09	 
y(0,2,2) = 0.19	 y(2,0,2) = 0.81	 
y(1,2,2) = 0.02	 y(2,1,2) = 0.98	 
obj:  1.0000000000000002
erro
[(0, 1), (1, 2), (0, 0), (0, 2), (2, 1), (2, 0), (2, 2), (1, 0), (1, 1)]
cliques:  0 mip: 47
C:  25.000000000000004
x(0,0) = 23.49	 x(0,1) = 4.93	 x(0,2) = 11.93	 
x(1,0) = 15.00	 x(1,1) = 9.72	 x(1,2) = 18.00	 
x(2,0) = 19.70	 x(2,1) = 5.08	 x(2,2) = 12.08	 
y(0,1,0) = 0.00	 y(1,0,0) = 1.00	 
y(0,2,0) = 0.26	 y(2,0,0) = 0.74	 
y(1,2,0) = 0.81	 y(2,1,0) = 0.19	 
y(0,1,1) = 0.74	 y(1,0,1) = 0.26	 
y(0,2,1) = 0.32	 y(2,0,1) = 0.68	 
y(1,2,1) = 0.21	 y(2,1,1) = 0.79	 
y(0,1,2) = 0.79	 y(1,0,2) = 0.21	 
y(0,2,2) = 0.50	 y(2,0,2) = 0.50	 
y(1,2,2) = 0.01	 y(2,1,2) = 0.99	 
obj:  1.032900730804155
erro
[(0, 1), (1, 2), (0, 0), (2, 1), (2, 0), (1, 1), (2, 2), (1, 0), (0, 2)]
cliques:  0 mip: 46
C:  25.0
x(0,0) = 23.05	 x(0,1) = 6.09	 x(0,2) = 13.09	 
x(1,0) = 15.00	 x(1,1) = 8.79	 x(1,2) = 18.00	 
x(2,0) = 21.17	 x(2,1) = 3.88	 x(2,2) = 10.88	 
y(0,1,0) = 0.00	 y(1,0,0) = 1.00	 
y(0,2,0) = 0.48	 y(2,0,0) = 0.52	 
y(1,2,0) = 0.87	 y(2,1,0) = 0.13	 
y(0,1,1) = 0.68	 y(1,0,1) = 0.32	 
y(0,2,1) = 0.21	 y(2,0,1) = 0.79	 
y(1,2,1) = 0.17	 y(2,1,1) = 0.83	 
y(0,1,2) = 0.92	 y(1,0,2) = 0.08	 
y(0,2,2) = 0.56	 y(2,0,2) = 0.44	 
y(1,2,2) = 0.04	 y(2,1,2) = 0.96	 
obj:  1.0
erro
[(0, 1), (1, 2), (0, 0), (2, 1), (2, 0), (1, 1), (2, 2), (1, 0), (0, 2)]
cliques:  0 mip: 46
C:  25.0
x(0,0) = 18.57	 x(0,1) = 4.57	 x(0,2) = 11.57	 
x(1,0) = 15.00	 x(1,1) = 8.71	 x(1,2) = 18.00	 
x(2,0) = 20.27	 x(2,1) = 5.46	 x(2,2) = 12.46	 
y(0,1,0) = 0.00	 y(1,0,0) = 1.00	 
y(0,2,0) = 0.38	 y(2,0,0) = 0.62	 
y(1,2,0) = 0.65	 y(2,1,0) = 0.35	 
y(0,1,1) = 0.89	 y(1,0,1) = 0.11	 
y(0,2,1) = 0.41	 y(2,0,1) = 0.59	 
y(1,2,1) = 0.41	 y(2,1,1) = 0.59	 
y(0,1,2) = 0.76	 y(1,0,2) = 0.24	 
y(0,2,2) = 0.60	 y(2,0,2) = 0.40	 
y(1,2,2) = 0.02	 y(2,1,2) = 0.98	 
obj:  1.0000000000000002
erro
[(0, 1), (1, 2), (0, 0), (2, 1), (2, 0), (1, 1), (2, 2), (1, 0), (0, 2)]
cliques:  0 mip: 0
iterações: 25 cortes cliques encontrados: 3 mip: 1029 objective:  25.0
Coin0506I Presolve 65 (-61) rows, 39 (-25) columns and 202 (-86) elements
Clp1000I sum of infeasibilities 3.24924e-06 - average 4.99884e-08, 0 fixed columns
Coin0506I Presolve 65 (0) rows, 39 (0) columns and 202 (0) elements
Clp0029I End of values pass after 39 iterations
Clp0000I Optimal - objective value 15
Clp0000I Optimal - objective value 15
Coin0511I After Postsolve, objective 15, infeasibilities - dual 0 (0), primal 0 (0)
Clp0000I Optimal - objective value 15
Clp0000I Optimal - objective value 15
Clp0000I Optimal - objective value 15
Coin0511I After Postsolve, objective 15, infeasibilities - dual 0 (0), primal 0 (0)
Clp0032I Optimal objective 15 - 0 iterations time 0.002, Presolve 0.00, Idiot 0.00
Coin3009W Conflict graph built in 0.000 seconds, density: 0.147%
